20 7
92 104 39 62 67 62 33
3 2 5 2 5 3 2 2 2 4 5 5 2 5 4 4 3 5 1 1
25 26 12 19 19 16 10
14 4 6 6 2 6 5
7 6 12 12 8 14 12
21 10 7 7 8 3 4
8 8 11 11 14 15 13
6 9 13 13 14 16 15
18 13 16 16 7 14 14
1 11 16 16 14 18 17
2 14 18 18 17 21 20
14 4 2 2 9 6 5
16 9 6 6 14 9 9
15 4 3 3 5 4 3
15 9 13 13 4 12 11
8 4 8 8 9 12 10
10 2 7 7 5 9 8
12 5 9 9 2 9 8
21 9 4 4 11 3 4
18 10 12 12 4 10 10
9 3 9 9 6 11 9
15 11 15 15 6 14 13
16 6 1 1 10 5 4
